V_100_3.txt

VEHICLE     CAPACITY  LOCATIONS  CUSTOMER  OPTIONS  PRIORITIES  NUMTYPS
10		150		97		100		152		3		4

CUSTOMER  DEMAND
0	 20
1	 13
2	 13
3	 17
4	 20
5	 12
6	 20
7	 19
8	 14
9	 12
10	 20
11	 14
12	 15
13	 16
14	 20
15	 20
16	 17
17	 15
18	 14
19	 16
20	 20
21	 17
22	 12
23	 12
24	 12
25	 15
26	 11
27	 13
28	 16
29	 14
30	 17
31	 17
32	 13
33	 19
34	 15
35	 11
36	 14
37	 10
38	 16
39	 13
40	 18
41	 10
42	 14
43	 16
44	 11
45	 14
46	 15
47	 14
48	 10
49	 10
50	 12
51	 12
52	 15
53	 13
54	 15
55	 13
56	 20
57	 15
58	 12
59	 19
60	 18
61	 19
62	 12
63	 11
64	 14
65	 20
66	 10
67	 20
68	 14
69	 16
70	 14
71	 12
72	 15
73	 14
74	 14
75	 17
76	 12
77	 20
78	 17
79	 19
80	 16
81	 16
82	 11
83	 18
84	 17
85	 18
86	 14
87	 12
88	 14
89	 15
90	 10
91	 15
92	 16
93	 20
94	 19
95	 16
96	 16
97	 10
98	 12
99	 14

LOCATION  XCOORD  YCOORD  CAP  READY  DUE  TYP  SERVICETIME
0		27		11		-1		0		720	 0		0
1		36		8		-1		331		391		 2		6
2		29		7		-1		522		582		 2		6
3		33		36		-1		615		675		 2		6
4		38		3		-1		465		525		 2		6
5		40		14		-1		188		248		 2		6
6		12		14		-1		579		639		 2		6
7		21		2		-1		466		526		 2		6
8		1		20		-1		602		662		 2		6
9		28		17		-1		609		669		 2		6
10		42		29		-1		292		352		 2		6
11		15		1		-1		620		680		 2		6
12		41		29		-1		308		368		 2		6
13		48		19		-1		373		433		 2		6
14		9		47		-1		388		448		 2		6
15		5		3		-1		548		608		 2		6
16		30		31		-1		629		689		 2		6
17		1		12		-1		83		143		 2		6
18		20		44		-1		527		587		 2		6
19		13		35		-1		167		227		 2		6
20		34		50		-1		463		523		 2		6
21		42		15		-1		131		191		 2		6
22		38		42		-1		336		396		 2		6
23		30		38		-1		318		378		 2		6
24		33		32		-1		233		293		 2		6
25		44		10		-1		626		686		 2		6
26		16		8		-1		412		472		 2		6
27		34		43		-1		95		155		 2		6
28		13		43		-1		588		648		 2		6
29		29		1		-1		565		625		 2		6
30		10		49		-1		88		148		 2		6
31		43		11		-1		607		667		 2		6
32		45		28		-1		413		473		 2		6
33		36		46		-1		94		154		 2		6
34		26		23		-1		659		719		 2		6
35		15		8		-1		108		168		 2		6
36		43		27		-1		645		705		 2		6
37		11		12		-1		564		624		 2		6
38		2		36		-1		594		654		 2		6
39		42		32		-1		261		321		 2		6
40		14		11		-1		170		230		 2		6
41		40		34		-1		434		494		 2		6
42		48		11		-1		429		489		 2		6
43		2		36		-1		66		126		 2		6
44		6		39		-1		142		202		 2		6
45		20		22		-1		33		93		 2		6
46		4		27		-1		632		692		 2		6
47		3		48		-1		437		497		 2		6
48		29		49		-1		503		563		 2		6
49		16		9		-1		383		443		 2		6
50		49		34		-1		605		665		 2		6
51		29		50		-1		572		632		 2		6
52		50		37		-1		196		256		 2		6
53		31		43		-1		122		182		 2		6
54		3		16		-1		394		454		 2		6
55		47		14		-1		400		460		 2		6
56		14		3		-1		631		691		 2		6
57		30		33		-1		77		137		 2		6
58		20		30		-1		215		275		 2		6
59		33		40		-1		543		603		 2		6
60		33		11		-1		630		690		 2		6
61		2		9		-1		387		447		 2		6
62		1		40		-1		154		214		 2		6
63		13		7		-1		561		621		 2		6
64		37		1		-1		398		458		 2		6
65		19		20		-1		578		638		 2		6
66		13		49		-1		461		521		 2		6
67		5		26		-1		260		320		 2		6
68		46		39		-1		484		544		 2		6
69		45		20		-1		295		355		 2		6
70		43		10		-1		371		431		 2		6
71		1		24		-1		40		100		 2		6
72		21		2		-1		484		544		 2		6
73		11		27		-1		280		340		 2		6
74		17		15		-1		264		324		 2		6
75		43		4		-1		214		274		 2		6
76		8		32		-1		584		644		 2		6
77		21		15		5		180		420		 1		4
78		23		32		4		452		692		 1		4
79		11		11		3		464		704		 1		4
80		45		34		4		353		593		 1		4
81		23		31		3		350		590		 1		4
82		9		34		3		298		538		 1		4
83		16		39		4		66		306		 1		4
84		24		9		3		375		615		 1		4
85		14		15		3		428		668		 1		4
86		27		17		4		353		593		 1		4
87		44		21		5		476		716		 1		4
88		22		33		3		343		583		 1		4
89		9		5		5		448		688		 1		4
90		33		26		3		47		287		 1		4
91		5		9		3		32		272		 1		4
92		9		31		4		396		636		 1		4
93		12		28		3		42		282		 1		4
94		16		6		3		380		620		 1		4
95		27		34		3		176		416		 1		4
96		5		8		3		480		720		 1		4
OPTION  LOCATION  CUSTOMER  PRIO  SERVICETIME   COST
0		93		0		0		2		0
1		77		1		0		2		0
2		83		2		0		2		0
3		79		3		0		2		0
4		96		4		0		2		0
5		79		5		0		2		0
6		86		6		0		2		0
7		88		7		0		2		0
8		78		8		0		2		0
9		83		9		0		2		0
10		77		10		0		2		0
11		86		11		0		2		0
12		77		12		0		2		0
13		90		13		0		2		0
14		91		14		0		2		0
15		91		15		0		2		0
16		94		16		0		2		0
17		82		17		0		2		0
18		87		18		0		2		0
19		81		19		0		2		0
20		90		20		0		2		0
21		89		21		0		2		0
22		80		22		0		2		0
23		95		23		0		2		0
24		1		24		0		5		0
25		2		25		0		5		0
26		3		26		0		5		0
27		4		27		0		5		0
28		5		28		0		5		0
29		6		29		0		5		0
30		7		30		0		5		0
31		8		31		0		5		0
32		9		32		0		5		0
33		10		33		0		5		0
34		11		34		0		5		0
35		12		35		0		5		0
36		13		36		0		5		0
37		14		37		0		5		0
38		15		38		0		5		0
39		16		39		0		5		0
40		17		40		0		5		0
41		18		41		0		5		0
42		19		42		0		5		0
43		20		43		0		5		0
44		21		44		0		5		0
45		22		45		0		5		0
46		23		46		0		5		0
47		24		47		0		5		0
48		25		48		1		5		0
49		95		48		0		2		0
50		26		49		1		5		0
51		84		49		0		2		0
52		27		50		0		5		0
53		91		50		1		2		0
54		28		51		1		5		0
55		82		51		0		2		0
56		29		52		1		5		0
57		89		52		0		2		0
58		30		53		0		5		0
59		80		53		1		2		0
60		31		54		1		5		0
61		90		54		0		2		0
62		32		55		1		5		0
63		87		55		0		2		0
64		33		56		1		5		0
65		88		56		0		2		0
66		34		57		1		5		0
67		81		57		0		2		0
68		35		58		1		5		0
69		79		58		0		2		0
70		36		59		1		5		0
71		88		59		0		2		0
72		37		60		1		5		0
73		85		60		0		2		0
74		38		61		0		5		0
75		80		61		1		2		0
76		39		62		1		5		0
77		78		62		0		2		0
78		40		63		1		5		0
79		81		63		0		2		0
80		41		64		1		5		0
81		78		64		0		2		0
82		42		65		1		5		0
83		86		65		0		2		0
84		43		66		1		5		0
85		86		66		0		2		0
86		44		67		0		5		0
87		94		67		1		2		0
88		45		68		1		5		0
89		81		68		0		2		0
90		46		69		1		5		0
91		82		69		0		2		0
92		47		70		1		5		0
93		92		70		0		2		0
94		48		71		1		5		0
95		88		71		0		2		0
96		49		72		0		5		0
97		86		72		1		2		0
98		50		73		1		5		0
99		93		73		0		2		0
100		51		74		0		5		0
101		81		74		1		2		0
102		52		75		0		5		0
103		78		75		1		2		0
104		53		76		1		5		0
105		95		76		0		2		0
106		54		77		1		5		0
107		85		77		0		2		0
108		55		78		0		5		0
109		80		78		1		2		0
110		56		79		1		5		0
111		91		79		0		2		0
112		57		80		1		5		0
113		90		80		0		2		0
114		58		81		1		5		0
115		82		81		0		2		0
116		59		82		1		5		0
117		94		82		0		2		0
118		60		83		0		5		0
119		84		83		1		2		0
120		61		84		1		5		0
121		89		84		0		2		0
122		62		85		1		5		0
123		94		85		0		2		0
124		63		86		0		5		0
125		96		86		1		2		0
126		64		87		0		5		0
127		90		87		1		2		0
128		65		88		0		5		0
129		86		88		1		2		0
130		66		89		0		5		0
131		79		89		1		2		0
132		67		90		1		5		0
133		82		90		0		2		0
134		68		91		0		5		0
135		90		91		1		2		0
136		69		92		0		5		0
137		80		92		1		2		0
138		70		93		1		5		0
139		93		93		0		2		0
140		71		94		0		5		0
141		83		94		1		2		0
142		72		95		1		5		0
143		89		95		0		2		0
144		73		96		0		5		0
145		82		96		1		2		0
146		74		97		0		5		0
147		79		97		1		2		0
148		75		98		0		5		0
149		84		98		1		2		0
150		76		99		1		5		0
151		92		99		0		2		0
